(set-info :Origin "This instance was generated by: BanditFuzz-- an RL fuzzer for SMT solvers" )
(set-info :Author "Joe Scott, Fed Mora, Vijay Ganesh" )
(set-info :Contact "Joe Scott, joseph.scott@uwaterloo.ca")
(set-logic QF_BV)
(declare-const bool_0 Bool)
(declare-const bool_1 Bool)
(declare-const bool_2 Bool)
(declare-const bool_3 Bool)
(declare-const bool_4 Bool)
(declare-const bv_0 (_ BitVec 32))
(declare-const bv_1 (_ BitVec 32))
(declare-const bv_2 (_ BitVec 32))
(declare-const bv_3 (_ BitVec 32))
(declare-const bv_4 (_ BitVec 32))
(assert (bvslt (bvsmod (bvor bv_4 #xbe0a570e ) (bvashr #x801e53d7  bv_1)) (bvmul (bvudiv #x344cbdf2  bv_1) (bvashr bv_1 #xe140c6d7 ))))
(assert (bvugt (bvmul (bvxor bv_4 bv_4) (bvsdiv bv_3 #x7886b5b0 )) (bvurem (bvor bv_4 bv_0) (bvxor #xc73785bf  #xa16f9bf4 ))))
(assert (and (not (=> bool_2 false)) (xor (bvugt #xff9dacf7  bv_4) (xor bool_4 true))))
(assert (bvsge (bvlshr (bvashr bv_2 bv_3) (bvshl #x9016962b  #xd52990de )) (bvor (bvsub bv_1 #x7c4a122c ) (bvshl bv_0 bv_4))))
(assert (bvule (bvnand (bvnand bv_1 #xdecf0dd9 ) (bvsdiv bv_0 #x1cf38844 )) (bvshl (bvand bv_1 #x37c17d54 ) (bvashr #x035a64e4  #xdef9c02a ))))
(check-sat)
(exit)
